1685
96 29 48 94 15 52 43 62 74 41 88 82 33 25 3 51 73 84 69 40 24 77 85 37 75 81 46 5 68 80 61 11 1 76 56 64 99 21 91 8 79 97 47 4 66 22 35 58 65 44 93 54 19 31 6 42 72 90 95 10 89 78 86 55 60 67 70 9 92 28 7 34 26 32 17 63 30 39 14 23 12 71 59 87 57 50 16 36 13 27 18 83 53 49 45 38 98 2 20 
